46689.0
47418.0
47274.0
47168.0
44311.0
46360.0
47438.0
46586.0
47856.0
46633.0
47397.0
46050.0
46317.0
46857.0
46580.0
45770.0
46511.0
46477.0
45362.0
46029.0
46168.0
45605.0
46179.0
45692.0
46475.0
44614.0
47385.0
46068.0
45843.0
46702.0
